Route #1: 4 45 27
Route #2: 13 54 19 35 8
Route #3: 46 52 34
Route #4: 7 53 14
Route #5: 11 38
Route #6: 10 31 25
Route #7: 50 18 24 49
Route #8: 23 41 42 43 1
Route #9: 33 22 28
Route #10: 21 36 47
Route #11: 15 20 37 5
Route #12: 29 48 30
Route #13: 12 9 39
Route #14: 40 32
Route #15: 44 3 16 51
Route #16: 17 6 2
Route #17: 26
Cost 974